(set-option :produce-models true)
(set-logic QF_UF)
(declare-fun p34() Bool)
(declare-fun p39() Bool)
(declare-fun p2() Bool)
(declare-fun p38() Bool)
(declare-fun p32() Bool)
(declare-fun p0() Bool)
(declare-fun p14() Bool)
(declare-fun p15() Bool)
(declare-fun p29() Bool)
(declare-fun p27() Bool)
(declare-fun p11() Bool)
(declare-fun p26() Bool)
(declare-fun p31() Bool)
(declare-fun p19() Bool)
(declare-fun p4() Bool)
(declare-fun p22() Bool)
(declare-fun p7() Bool)
(declare-fun p18() Bool)
(declare-fun p9() Bool)
(declare-fun p13() Bool)
(declare-fun p17() Bool)
(declare-fun p33() Bool)
(declare-fun p21() Bool)
(declare-fun p23() Bool)
(declare-fun p35() Bool)
(declare-fun p16() Bool)
(declare-fun p1() Bool)
(declare-fun p3() Bool)
(declare-fun p8() Bool)
(declare-fun p36() Bool)
(declare-fun p5() Bool)
(declare-fun p6() Bool)
(declare-fun p37() Bool)
(declare-fun p10() Bool)
(declare-fun p30() Bool)
(declare-fun p12() Bool)
(declare-fun p28() Bool)
(declare-fun p20() Bool)
(declare-fun p24() Bool)
(declare-fun p25() Bool)
(assert
(and (or p34 (not p39) (not p2)) (or (not p38) p32 p2) (or (not p34) (not p0) p14) (or p15 (not p32) (not p29)) (or p27 p11 p11) (or (not p26) (not p15) (not p26)) (or p31 p27 p19) (or p4 (not p22) p7) (or (not p18) p9 (not p14)) (or p13 p9 (not p17)) (or (not p33) (not p17) p9) (or p39 (not p21) (not p23)) (or (not p13) p35 (not p16)) (or p1 (not p9) (not p27)) (or (not p22) (not p27) (not p2)) (or (not p34) p1 p26) (or p38 p14 (not p9)) (or p22 (not p3) p8) (or (not p16) (not p34) p36) (or p5 p38 (not p2)) (or (not p38) p14 p32) (or p6 p38 p17) (or (not p37) (not p11) (not p14)) (or p10 p9 (not p13)) (or p6 p19 (not p7)) (or (not p31) (not p35) p38) (or (not p14) p30 (not p1)) (or (not p35) (not p21) p38) (or (not p27) (not p23) p35) (or (not p33) (not p12) p36) (or p18 p28 (not p23)) (or (not p32) p12 p35) (or (not p4) (not p3) (not p19)) (or p8 (not p16) (not p10)) (or p23 (not p4) (not p20)) (or (not p12) (not p5) (not p21)) (or (not p2) p38 (not p35)) (or p36 p34 (not p35)) (or (not p5) p1 p8) (or (not p22) p38 p38) (or p27 (not p9) p29) (or p3 p24 (not p21)) (or p22 p2 (not p14)) (or p36 p7 (not p27)) (or (not p12) (not p25) p12) (or p16 p32 (not p8)) (or (not p21) (not p31) p28) (or p11 p30 (not p34)) (or (not p34) p10 p13) (or (not p37) p14 p3) (or (not p26) (not p4) (not p15)) (or (not p3) p26 (not p38)) (or p35 (not p28) (not p36)) (or (not p13) (not p2) p33) (or (not p7) (not p4) (not p2)) (or p14 (not p39) p31) (or p39 p20 (not p15)) (or p37 (not p22) (not p2)) (or p34 p12 (not p12)) (or p0 (not p0) p14) (or p29 p18 p33) (or (not p17) (not p12) p12) (or p8 (not p9) (not p19)) (or p2 p27 (not p5)) (or (not p29) (not p34) (not p14)) (or p3 p13 p8) (or p10 (not p0) p31) (or p17 (not p38) (not p13)) (or p1 (not p1) (not p38)) (or p22 (not p38) (not p16)) (or (not p38) p9 p15) (or (not p27) p16 p8) (or p23 p23 (not p9)) (or p33 (not p13) (not p23)) (or p5 (not p24) p26) (or (not p32) (not p19) p22) (or p13 p3 (not p22)) (or (not p31) p8 (not p10)) (or p12 p0 (not p12)) (or (not p6) (not p22) p5) (or (not p18) p31 (not p9)) (or p20 p29 p2) (or p9 (not p21) p14) (or p14 p31 p32) (or (not p7) (not p16) p32) (or p26 p14 (not p4)) (or (not p27) (not p5) p7) (or (not p4) p29 p2) (or (not p15) p25 p33) (or p26 (not p28) (not p24)) (or (not p30) (not p35) (not p12)) (or (not p19) p20 (not p19)) (or (not p17) p14 (not p34)) (or (not p6) p3 (not p38)) (or (not p26) p33 p26) (or p21 p26 (not p16)) (or (not p24) p32 (not p21)) (or (not p4) p14 (not p7)) (or p15 (not p32) p28) (or p2 (not p31) (not p9)) (or p28 p1 p31) (or p5 p24 p15) (or p16 (not p7) (not p5)) (or p16 (not p9) (not p19)) (or (not p23) p6 p36) (or (not p35) p35 p17) (or p32 (not p4) (not p19)) (or p0 (not p22) (not p37)) (or p30 (not p28) p34) (or p26 p5 p11) (or p37 p26 (not p13)) (or p8 p3 (not p15)) (or p3 p32 p16) (or p22 p29 p17) (or (not p24) p16 p27) (or p35 (not p33) p38) (or (not p28) p39 (not p17)) (or (not p18) (not p5) (not p6)) (or p21 (not p35) (not p25)) (or (not p39) p16 p3) (or (not p36) (not p30) (not p17)) (or (not p1) (not p17) (not p29)) (or p37 (not p24) p39) (or p30 p20 (not p27)) (or (not p2) p23 p20) (or p21 (not p14) (not p38)) (or p14 (not p1) p16) (or p37 p36 p32) (or p2 (not p25) (not p30)) (or (not p37) (not p28) p4) (or p35 p2 p29) (or (not p3) (not p34) (not p22)) (or (not p7) (not p10) (not p35)) (or p37 (not p37) p12) (or (not p21) p7 p37) (or p8 p29 (not p10)) (or p18 (not p35) p36) (or p22 (not p39) p0) (or (not p6) p21 p35) (or p38 (not p34) (not p11)) (or (not p27) p32 p28) (or (not p12) (not p35) (not p33)) (or p5 (not p10) p4) (or p13 (not p34) p28) (or (not p1) p11 p21) (or p22 (not p26) (not p20)) (or (not p19) p3 p27) (or p23 p21 p33) (or p32 (not p12) (not p35)) (or p17 p29 (not p19)) (or p25 p24 (not p19)) (or (not p35) p36 p6) (or p15 (not p23) (not p4)) (or (not p38) p10 p5) (or p28 (not p15) p16) (or (not p39) p36 (not p39)) (or (not p21) (not p10) p0) (or p18 (not p23) (not p33)) (or (not p22) p19 (not p26)) (or p5 (not p23) p33) (or p38 p33 p12) (or (not p12) (not p30) p27) (or p9 p32 p15) (or p0 p5 p31) (or p6 (not p15) (not p30)) (or (not p18) (not p15) (not p17)) (or (not p11) p37 (not p20)) (or p24 p24 (not p16)) (or p10 p19 p28) (or p29 p36 p15) (or (not p0) p37 (not p39)))
)
(check-sat)
(get-model)
